2
1000 8
181
13 1 2
14 1 4
15 1 4
16 1 1
17 1 4
18 1 2
19 1 2
20 1 1
21 1 1
22 1 3
23 1 3
24 1 1
25 1 1
26 1 3
27 1 1
28 1 1
29 1 4
30 1 5
31 1 5
32 1 3
33 1 3
34 1 4
35 1 3
36 1 3
37 1 1
38 1 1
39 1 2
42 1 4
43 1 5
44 1 6
45 1 2
46 1 2
47 1 3
48 1 1
49 1 1
50 1 1
51 1 3
53 1 4
54 1 2
55 1 4
56 1 5
57 1 5
58 1 4
59 1 6
60 1 2
61 1 1
62 1 6
63 1 5
64 1 9
65 1 3
66 1 2
67 1 1
69 1 3
70 1 2
71 1 2
72 1 2
73 1 2
75 1 1
76 1 3
77 1 1
78 1 2
79 1 2
80 1 3
81 1 3
83 1 2
84 1 1
86 1 2
87 1 5
88 1 2
89 1 2
90 1 2
91 1 6
92 1 3
93 1 1
94 1 1
95 1 4
96 1 3
97 1 2
99 1 4
100 1 2
101 1 3
103 1 3
104 1 4
105 1 2
106 1 1
107 1 3
108 1 2
110 1 3
111 1 3
112 1 2
113 1 2
114 1 4
115 1 3
116 1 5
117 1 4
118 1 3
119 1 5
120 1 1
121 1 4
122 1 2
124 1 4
125 1 1
126 1 3
127 1 2
128 1 2
129 1 3
130 1 3
131 1 5
132 1 3
133 1 3
134 1 4
135 1 2
136 1 1
137 1 4
139 1 1
140 1 1
141 1 3
142 1 2
143 1 4
144 1 2
145 1 2
146 1 2
147 1 1
148 1 3
149 1 3
150 1 3
151 1 2
152 1 2
153 1 3
154 1 2
156 1 4
157 1 3
158 1 4
159 1 1
160 1 2
161 1 4
163 1 3
164 1 3
165 1 1
166 1 1
167 1 1
168 1 4
169 1 7
170 1 3
173 1 3
174 1 1
175 1 3
176 1 2
177 1 3
178 1 5
179 1 3
180 1 4
181 1 1
182 1 5
183 1 4
184 1 1
185 1 2
186 1 5
187 1 5
188 1 1
189 1 2
190 1 2
191 1 5
192 1 3
193 1 1
194 1 2
195 1 2
196 1 5
197 1 3
198 1 1
199 1 3
200 1 3
201 1 2
202 1 2
203 1 1
204 1 1
205 1 3
206 1 5
207 1 2
208 1 4
209 1 1
